results/x-long/X-n162-k11.vrp_seed-47.out
14153	1137
