results/x-long/X-n162-k11.vrp_seed-47.vrp.sol
Route #1: 72 119 144 143 84 122 107 133 138 126 139 105 10 29 15
Route #2: 156 115 103 118 30 40 157 112 87 4 101 132 93 125 92 155
Route #3: 8 42 51 12 64 18 19 3 33 75 44 7 34 22 78
Route #4: 59 50 45 150 90 86 53 80
Route #5: 28 26 48 11 38 73 49 6 37 71 13 24 23 152
Route #6: 52 79 20 67 62 114 95 129 96 88 106 100 31 140 154 111
Route #7: 54 76 41 61 46 69 65 70 113 63 104 83 98 47 25
Route #8: 145 68 58 130 99 35 36 94 66 56 123 43 142 102 116
Route #9: 161 77 97 117 27 9 21 60 55 1 14 89 149 17 127
Route #10: 136 91 81 158 120 5 16 32 57 131 151 146 39 137 108 74
Route #11: 141 135 147 159 82 2 109 148 134 124 128 110 153 160 85 121
Cost 14153.000000